NAME : problems/40-tsp/instance-43.tsp
COMMENT : No Comment
TYPE : TSP
DIMENSION: 40
EDGE_WEIGHT_TYPE : EUC_2D
NODE_COORD_SECTION
1 8322 6864 
2 8539 1211 
3 7200 9454 
4 4353 9458 
5 190 9983 
6 6722 4194 
7 1062 4524 
8 7057 1680 
9 9914 9517 
10 9921 9825 
11 2671 1393 
12 7569 4328 
13 1029 7295 
14 3290 8833 
15 7726 9220 
16 9591 3357 
17 90 5151 
18 809 8113 
19 4130 3160 
20 9003 9465 
21 2911 6773 
22 2615 9607 
23 7336 8623 
24 9417 2586 
25 6229 2617 
26 6732 2504 
27 3103 9417 
28 2312 6305 
29 205 3610 
30 3018 3027 
31 3824 1788 
32 7857 712 
33 2495 5426 
34 2842 7546 
35 5058 9481 
36 621 5084 
37 2721 7315 
38 9997 649 
39 1095 1175 
40 4736 9916 
EOF
